Set parameter TSPort to value 51199
Set parameter TokenServer to value "open-license1.lanl.gov"
Set parameter TimeLimit to value 8192
Set parameter Threads to value 1
Gurobi Optimizer version 10.0.3 build v10.0.3rc0 (linux64)

CPU model: Intel(R) Xeon(R) CPU E5-2695 v4 @ 2.10GHz, instruction set [SSE2|AVX|AVX2]
Thread count: 36 physical cores, 72 logical processors, using up to 1 threads

Optimize a model with 0 rows, 3447 columns and 0 nonzeros
Model fingerprint: 0x8bf63eb0
Model has 15955 quadratic objective terms
Variable types: 0 continuous, 3447 integer (3447 binary)
Coefficient statistics:
  Matrix range     [0e+00, 0e+00]
  Objective range  [2e+00, 3e+01]
  QObjective range [8e+00, 8e+00]
  Bounds range     [1e+00, 1e+00]
  RHS range        [0e+00, 0e+00]
Found heuristic solution: objective 0.0000000
Found heuristic solution: objective -5882.000000
Found heuristic solution: objective -21598.00000
Found heuristic solution: objective -21644.00000
Presolve removed 0 rows and 4 columns
Presolve time: 0.40s
Presolved: 15951 rows, 19394 columns, 47853 nonzeros
Variable types: 0 continuous, 19394 integer (19394 binary)

Root relaxation: objective -3.008900e+04, 4882 iterations, 0.07 seconds (0.04 work units)

    Nodes    |    Current Node    |     Objective Bounds      |     Work
 Expl Unexpl |  Obj  Depth IntInf | Incumbent    BestBd   Gap | It/Node Time

     0     0 -30089.000    0 3443 -21644.000 -30089.000  39.0%     -    0s
     0     0 -28359.500    0 4278 -21644.000 -28359.500  31.0%     -    1s
     0     0 -27864.000    0 4559 -21644.000 -27864.000  28.7%     -    1s
     0     0 -27845.000    0 4572 -21644.000 -27845.000  28.6%     -    1s
     0     0 -27504.250    0 4797 -21644.000 -27504.250  27.1%     -    2s
     0     0 -27504.250    0 4743 -21644.000 -27504.250  27.1%     -    3s
     0     2 -27503.250    0 4732 -21644.000 -27503.250  27.1%     -    4s
    16    18 -27416.250    8 4822 -21644.000 -27491.250  27.0%   346    5s
   238   240 -26440.000  119 5715 -21644.000 -27491.250  27.0%   112   10s
   466   468 -25469.500  233 6288 -21644.000 -27491.250  27.0%  94.6   15s
   675   677 -24740.667  338 6575 -21644.000 -27491.250  27.0%  89.3   20s
   864   866 -24128.167  432 6719 -21644.000 -27491.250  27.0%  82.9   26s
   910   912 -23970.167  455 6735 -21644.000 -27491.250  27.0%  81.6   31s
  1078  1080 -23453.167  539 6749 -21644.000 -27491.250  27.0%  77.7   35s
H 1274  1274                    -21648.00000 -27491.250  27.0%  74.0   38s
  1352  1354 -22737.167  676 6816 -21648.000 -27491.250  27.0%  72.4   40s
H 1456  1456                    -21656.00000 -27491.250  26.9%  71.3   41s
H 1508  1508                    -21664.00000 -27491.250  26.9%  71.1   43s
H 1534  1534                    -21666.00000 -27491.250  26.9%  70.8   43s
H 1586  1586                    -21678.00000 -27491.250  26.8%  70.3   44s
H 1612  1612                    -21688.00000 -27491.250  26.8%  69.8   45s
H 1638  1638                    -21698.00000 -27491.250  26.7%  69.5   45s
H 1664  1664                    -21702.00000 -27491.250  26.7%  69.2   46s
H 1690  1690                    -21710.00000 -27491.250  26.6%  68.8   46s
H 1716  1716                    -21734.00000 -27491.250  26.5%  68.4   47s
H 1742  1742                    -21754.00000 -27491.250  26.4%  67.9   47s
H 1768  1768                    -21772.00000 -27491.250  26.3%  67.5   49s
  1776  1778 -21785.667  892 6247 -21772.000 -27491.250  26.3%  67.4   50s
H 1799  1775                    -21780.00000 -27491.250  26.2%  67.0   50s
H 1825  1771                    -21782.00000 -27490.250  26.2%  66.5   52s
  1828  1773 -23412.167  547 3443 -21782.000 -27490.250  26.2%  66.4   56s
  1832  1776 -24306.167  404 5652 -21782.000 -26170.783  20.1%  66.2   61s
  1838  1780 -22754.667  674 6450 -21782.000 -25614.130  17.6%  66.0   74s
  1839  1781 -22423.667  744 6962 -21782.000 -25478.893  17.0%  66.0   94s
  1840  1781 -21914.667  855 7282 -21782.000 -25436.647  16.8%  66.0  109s
  1841  1782 -23760.167  488 7382 -21782.000 -25424.432  16.7%  65.9  118s
  1842  1783 -25421.293  234 7517 -21782.000 -25421.293  16.7%  65.9  121s
  1844  1784 -25418.737  172 7583 -21782.000 -25418.737  16.7%  65.8  126s
  1851  1789 -22378.667  754 8232 -21782.000 -25077.365  15.1%  65.6  211s
  1852  1789 -24975.494  221 8682 -21782.000 -24975.494  14.7%  65.5  295s
  1853  1790 -24940.732  149 9058 -21782.000 -24940.732  14.5%  65.5  352s
  1854  1791 -23008.833  618 9216 -21782.000 -24931.887  14.5%  65.5  380s
  1855  1791 -23821.167  479 9373 -21782.000 -24927.819  14.4%  65.4  391s
  1856  1792 -24925.882  165 9505 -21782.000 -24925.882  14.4%  65.4  398s
  1857  1793 -24924.475    3 9606 -21782.000 -24924.475  14.4%  65.4  404s
  1858  1793 -23023.167  615 9613 -21782.000 -24924.079  14.4%  65.3  406s
  1861  1795 -24923.896  271 9670 -21782.000 -24923.896  14.4%  65.2  410s
  1865  1798 -23544.167  522 10128 -21782.000 -24643.833  13.1%  65.1  583s
  1866  1799 -22950.167  629 10612 -21782.000 -24581.124  12.9%  65.0  717s
  1867  1799 -22022.667  831 10904 -21782.000 -24534.712  12.6%  65.0  832s
  1868  1800 -22678.167  696 11321 -21782.000 -24521.018  12.6%  65.0  880s
  1869  1801 -21809.667  886 11442 -21782.000 -24517.121  12.6%  64.9  903s
  1870  1801 -24515.344  327 11516 -21782.000 -24515.344  12.5%  64.9  918s
  1871  1802 -23828.167  478 11598 -21782.000 -24513.781  12.5%  64.9  930s
  1872  1803 -22303.167  768 11676 -21782.000 -24513.299  12.5%  64.8  936s
  1873  1803 -22891.667  639 11652 -21782.000 -24513.091  12.5%  64.8  940s
  1876  1805 -22828.000  654 11740 -21782.000 -24512.948  12.5%  64.7  946s
  1879  1807 -24512.928    4 11759 -21782.000 -24512.928  12.5%  64.6  950s
  1880  1808 -24305.704  108 11915 -21782.000 -24305.704  11.6%  64.6 1196s
  1881  1809 -22736.167  678 12472 -21782.000 -24260.858  11.4%  64.5 1373s
  1882  1809 -23842.167  475 12975 -21782.000 -24225.206  11.2%  64.5 1533s
  1883  1810 -23974.167  455 13162 -21782.000 -24213.142  11.2%  64.5 1611s
  1884  1811 -24209.753  196 13273 -21782.000 -24209.753  11.1%  64.4 1644s
  1885  1811 -24208.453   91 13412 -21782.000 -24208.453  11.1%  64.4 1664s
  1886  1812 -24207.690   23 13453 -21782.000 -24207.690  11.1%  64.3 1676s
  1887  1813 -22132.667  803 13541 -21782.000 -24207.172  11.1%  64.3 1686s
  1888  1813 -24207.073  346 13545 -21782.000 -24207.073  11.1%  64.3 1690s
  1891  1815 -24207.003  286 13651 -21782.000 -24207.003  11.1%  64.2 1695s
  1892  1816 -24015.167  449 13676 -21782.000 -24207.000  11.1%  64.1 1700s
  1893  1817 -22324.667  763 14273 -21782.000 -24042.689  10.4%  64.1 2047s
  1894  1817 -24009.867  336 14564 -21782.000 -24009.867  10.2%  64.1 2264s
  1895  1818 -22754.667  674 14970 -21782.000 -23997.773  10.2%  64.0 2384s
  1896  1819 -22581.167  713 15109 -21782.000 -23995.143  10.2%  64.0 2429s
  1897  1819 -23994.038  430 15222 -21782.000 -23994.038  10.2%  64.0 2453s
  1898  1820 -23993.734  414 15251 -21782.000 -23993.734  10.2%  63.9 2464s
  1899  1821 -22575.167  714 15286 -21782.000 -23993.615  10.2%  63.9 2470s
  1900  1821 -23993.535  164 15322 -21782.000 -23993.535  10.2%  63.9 2477s
  1901  1822 -23993.503  242 15348 -21782.000 -23993.503  10.2%  63.8 2480s
H 1903  1730                    -21784.00000 -23909.850  9.76%  63.8 2814s
  1905  1732 -22647.167  701 15428 -21784.000 -23893.895  9.69%  63.7 2977s
  1906  1732 -23891.347  137 15641 -21784.000 -23891.347  9.67%  63.7 3030s
  1907  1733 -23890.543  239 15705 -21784.000 -23890.543  9.67%  63.6 3053s
  1908  1734 -22797.667  661 15745 -21784.000 -23890.282  9.67%  63.6 3069s
  1909  1734 -23394.167  550 15747 -21784.000 -23890.157  9.67%  63.6 3075s
  1910  1735 -23890.087   76 15744 -21784.000 -23890.087  9.67%  63.5 3082s
  1911  1736 -23890.073   76 15774 -21784.000 -23890.073  9.67%  63.5 3085s
  1913  1737 -23832.516  275 15732 -21784.000 -23832.516  9.40%  63.4 3390s
  1914  1738 -22191.167  792 15957 -21784.000 -23821.114  9.35%  63.4 3559s
  1915  1738 -23818.852   34 16019 -21784.000 -23818.852  9.34%  63.4 3625s
  1916  1739 -22124.667  807 16098 -21784.000 -23818.290  9.34%  63.3 3643s
  1917  1740 -22064.667  821 16109 -21784.000 -23818.073  9.34%  63.3 3658s
  1918  1740 -23226.167  580 16172 -21784.000 -23818.008  9.34%  63.3 3665s
  1919  1741 -23817.972  113 16174 -21784.000 -23817.972  9.34%  63.2 3670s
  1921  1742 -23817.721  310 16178 -21784.000 -23817.721  9.34%  63.2 3682s
  1922  1743 -23817.660  307 16215 -21784.000 -23817.660  9.34%  63.1 3688s
  1923  1744 -21809.667  886 16206 -21784.000 -23817.646  9.34%  63.1 3690s
  1925  1745 -22749.667  675 16223 -21784.000 -23817.635  9.34%  63.0 3696s
  1926  1746 -23765.043  114 16087 -21784.000 -23765.043  9.09%  63.0 4023s
  1927  1746 -22344.667  760 16209 -21784.000 -23754.270  9.04%  63.0 4212s
  1928  1747 -23412.167  547 16317 -21784.000 -23751.765  9.03%  62.9 4285s
  1929  1748 -21834.667  877 16382 -21784.000 -23751.105  9.03%  62.9 4318s
  1930  1748 -22041.667  827 16401 -21784.000 -23750.867  9.03%  62.9 4335s
  1931  1749 -23431.167  543 16416 -21784.000 -23750.840  9.03%  62.8 4341s
  1933  1750 -23750.825  385 16432 -21784.000 -23750.825  9.03%  62.8 4348s
  1934  1751 -23353.167  558 16258 -21784.000 -23715.400  8.87%  62.8 4649s
  1935  1752 -22842.667  650 16385 -21784.000 -23707.563  8.83%  62.7 4811s
  1936  1752 -23472.167  536 16431 -21784.000 -23706.155  8.82%  62.7 4869s
  1937  1753 -23575.167  517 16469 -21784.000 -23705.659  8.82%  62.7 4898s
  1938  1754 -22754.667  674 16542 -21784.000 -23705.517  8.82%  62.6 4911s
  1939  1754 -22423.667  744 16538 -21784.000 -23705.441  8.82%  62.6 4918s
  1940  1755 -21914.667  855 16567 -21784.000 -23705.408  8.82%  62.6 4922s
  1941  1756 -23705.399  488 16581 -21784.000 -23705.399  8.82%  62.5 4925s
  1943  1757 -23674.464  244 16428 -21784.000 -23674.464  8.68%  62.5 5235s
  1944  1758 -23668.092  172 16549 -21784.000 -23668.092  8.65%  62.4 5387s
  1945  1758 -21923.667  853 16593 -21784.000 -23666.626  8.64%  62.4 5449s
  1946  1759 -22704.167  691 16656 -21784.000 -23666.346  8.64%  62.4 5465s
  1947  1760 -22216.167  786 16661 -21784.000 -23666.108  8.64%  62.3 5481s
  1948  1760 -23666.061  348 16709 -21784.000 -23666.061  8.64%  62.3 5489s
  1949  1761 -23666.049  211 16731 -21784.000 -23666.049  8.64%  62.3 5492s
  1951  1762 -22378.667  754 16745 -21784.000 -23666.043  8.64%  62.2 5498s
  1952  1763 -23640.322  221 16562 -21784.000 -23640.322  8.52%  62.2 5786s
  1953  1764 -23634.608  149 16661 -21784.000 -23634.608  8.50%  62.1 5931s
  1954  1764 -23008.833  618 16743 -21784.000 -23633.480  8.49%  62.1 5972s
  1955  1765 -23633.121  479 16785 -21784.000 -23633.121  8.49%  62.1 5992s
  1956  1766 -23633.033  165 16841 -21784.000 -23633.033  8.49%  62.0 6001s
  1957  1766 -23632.999    3 16843 -21784.000 -23632.999  8.49%  62.0 6005s
  1959  1768 -22461.667  737 16865 -21784.000 -23632.990  8.49%  61.9 6011s
  1960  1768 -22049.667  826 16697 -21784.000 -23612.977  8.40%  61.9 6278s
  1961  1769 -23608.366  271 16792 -21784.000 -23608.366  8.37%  61.9 6414s
  1962  1770 -22194.167  790 16852 -21784.000 -23607.522  8.37%  61.9 6461s
  1963  1770 -21928.667  852 16911 -21784.000 -23607.336  8.37%  61.8 6473s
  1964  1771 -22973.167  623 16929 -21784.000 -23607.213  8.37%  61.8 6488s
  1965  1772 -23544.167  522 16939 -21784.000 -23607.180  8.37%  61.8 6494s
  1966  1772 -22950.167  629 16970 -21784.000 -23607.169  8.37%  61.7 6497s
  1968  1774 -22678.167  696 16812 -21784.000 -23590.010  8.29%  61.7 6755s
  1969  1774 -21809.667  886 16889 -21784.000 -23585.716  8.27%  61.6 6887s
  1970  1775 -23585.017  327 16958 -21784.000 -23585.017  8.27%  61.6 6919s
  1971  1776 -23584.814  478 17015 -21784.000 -23584.814  8.27%  61.6 6939s
  1972  1776 -22303.167  768 17030 -21784.000 -23584.743  8.27%  61.5 6947s
  1973  1777 -22891.667  639 17034 -21784.000 -23584.718  8.27%  61.5 6953s
  1974  1778 -23584.710  427 17064 -21784.000 -23584.710  8.27%  61.5 6956s
  1976  1779 -22828.000  654 16929 -21784.000 -23568.497  8.19%  61.4 7216s
  1977  1780 -23564.868  193 17060 -21784.000 -23564.868  8.18%  61.4 7338s
  1978  1780 -23563.973  476 17110 -21784.000 -23563.973  8.17%  61.4 7382s
  1979  1781 -23563.707    4 17157 -21784.000 -23563.707  8.17%  61.3 7407s
  1980  1782 -23563.602  108 17158 -21784.000 -23563.602  8.17%  61.3 7419s
  1981  1782 -22736.167  678 17182 -21784.000 -23563.582  8.17%  61.3 7424s
  1982  1783 -23563.565  475 17194 -21784.000 -23563.565  8.17%  61.2 7429s
  1983  1784 -23563.559  455 17196 -21784.000 -23563.559  8.17%  61.2 7431s
  1985  1785 -23563.551   91 17210 -21784.000 -23563.551  8.17%  61.1 7435s
  1986  1786 -23549.787   23 17005 -21784.000 -23549.787  8.11%  61.1 7673s
  1987  1786 -22132.667  803 17114 -21784.000 -23546.784  8.09%  61.1 7789s
  1988  1787 -23546.149  346 17138 -21784.000 -23546.149  8.09%  61.0 7829s
  1989  1788 -23545.965  498 17215 -21784.000 -23545.965  8.09%  61.0 7849s
  1990  1788 -23545.876  181 17236 -21784.000 -23545.876  8.09%  61.0 7861s
  1991  1789 -23545.834  286 17206 -21784.000 -23545.834  8.09%  61.0 7869s
  1992  1790 -23545.820  449 17231 -21784.000 -23545.820  8.09%  60.9 7873s
  1993  1790 -22324.667  763 17235 -21784.000 -23545.817  8.09%  60.9 7876s
  1994  1791 -23533.044  336 17082 -21784.000 -23533.044  8.03%  60.9 8114s

Cutting planes:
  Gomory: 117
  MIR: 622
  Flow cover: 6061
  Zero half: 2261
  Mod-K: 117
  RLT: 710
  BQP: 1137

Explored 1994 nodes (3889671 simplex iterations) in 8192.00 seconds (13130.92 work units)
Thread count was 1 (of 72 available processors)

Solution count 10: -21784 -21782 -21780 ... -21688

Time limit reached
Best objective -2.178400000000e+04, best bound -2.353200000000e+04, gap 8.0242%

User-callback calls 22351, time in user-callback 0.10 sec

BQP_SOLUTION, 3447, 15955, -7650.000000, 8192.002605, 1, -1, 1, 1, -1, 1, 1, -1, 1, -1, -1, 1, -1, -1, 1, -1, -1, -1, -1, 1, -1, 1, 1, -1, 1, -1, 1, -1, 1, -1, 1, 1, -1, 1, -1, 1, 1, -1, 1, -1, -1, -1, -1, 1, -1, 1, 1, 1, 1, -1, -1, 1, -1, -1, 1, 1, -1, 1, 1, 1, 1, -1, -1, -1, 1, -1, -1, 1, -1, -1, -1, 1, -1, -1, -1, 1, -1, -1, 1, 1, -1, -1, 1, 1, 1, -1, -1, 1, -1, -1, 1, 1, -1, -1, -1, 1, -1, -1, -1, 1, -1, -1, 1, 1, 1, -1, 1, 1, 1, -1, -1, 1, -1, 1, 1, 1, -1, -1, 1, 1, -1, -1, -1, -1, -1, 1, 1, 1, -1, -1, 1, -1, 1, 1, -1, -1, 1, -1, 1, 1, -1, 1, -1, 1, -1, -1, -1, 1, -1, 1, 1, 1, -1, -1, 1, 1, -1, -1, -1, 1, -1, 1, 1, 1, -1, -1, 1, 1, -1, -1, -1, 1, -1, -1, 1, 1, 1, 1, -1, 1, -1, -1, 1, 1, -1, 1, 1, 1, -1, 1, 1, 1, 1, -1, 1, -1, -1, -1, 1, -1, -1, -1, -1, 1, 1, -1, -1, 1, 1, 1, 1, 1, 1, -1, 1, -1, 1, -1, -1, 1, 1, -1, 1, 1, 1, 1, -1, 1, 1, -1, -1, -1, 1, 1, 1, 1, 1, 1, -1, -1, 1, -1, 1, -1, 1, -1, 1, 1, 1, 1, 1, 1, -1, 1, -1, -1, 1, -1, 1, -1, 1, 1, 1, 1, 1, 1, -1, -1, 1, -1, 1, -1, 1, 1, 1, 1, 1, -1, 1, -1, 1, -1, 1, -1, 1, -1, 1, 1, 1, 1, -1, -1, -1, 1, 1, 1, 1, 1, 1, 1, 1, 1, -1, 1, -1, -1, 1, -1, 1, 1, 1, 1, 1, 1, -1, -1, 1, -1, -1, -1, 1, -1, 1, 1, 1, 1, -1, 1, -1, 1, -1, 1, -1, 1, 1, 1, 1, 1, 1, -1, 1, -1, 1, -1, 1, 1, 1, 1, 1, 1, -1, -1, 1, -1, 1, -1, 1, 1, 1, -1, 1, 1, -1, -1, 1, -1, -1, -1, 1, 1, -1, 1, 1, 1, 1, -1, 1, 1, 1, -1, -1, 1, 1, -1, 1, 1, 1, -1, -1, 1, -1, 1, 1, 1, -1, 1, 1, 1, -1, 1, -1, 1, -1, -1, 1, 1, -1, 1, 1, -1, -1, -1, 1, 1, -1, -1, 1, 1, -1, 1, 1, -1, -1, 1, -1, 1, -1, -1, 1, -1, -1, -1, -1, -1, -1, 1, 1, 1, -1, 1, 1, -1, -1, 1, -1, 1, -1, 1, -1, -1, 1, 1, 1, -1, 1, 1, -1, 1, -1, 1, -1, 1, -1, 1, 1, -1, -1, 1, -1, -1, -1, 1, 1, -1, -1, -1, 1, 1, -1, 1, -1, -1, -1, -1, 1, 1, 1, -1, 1, 1, -1, 1, -1, 1, -1, 1, -1, 1, 1, 1, 1, -1, -1, 1, -1, 1, -1, 1, -1, 1, 1, 1, 1, 1, -1, 1, -1, -1, -1, 1, 1, -1, 1, 1, 1, 1, -1, 1, -1, -1, -1, -1, 1, -1, 1, 1, 1, 1, -1, 1, -1, -1, -1, -1, 1, -1, 1, 1, 1, 1, -1, 1, -1, -1, -1, 1, 1, -1, 1, -1, 1, 1, -1, 1, -1, -1, -1, -1, 1, -1, 1, 1, 1, 1, -1, 1, -1, -1, -1, 1, -1, 1, 1, 1, 1, -1, -1, 1, -1, -1, -1, 1, 1, 1, 1, 1, 1, -1, -1, -1, -1, 1, -1, 1, -1, 1, 1, 1, 1, -1, -1, 1, -1, -1, 1, 1, -1, 1, 1, 1, 1, -1, -1, -1, -1, -1, -1, 1, -1, -1, 1, 1, 1, -1, -1, 1, -1, -1, 1, -1, 1, 1, 1, 1, 1, 1, -1, 1, -1, 1, -1, 1, -1, -1, -1, 1, 1, -1, -1, -1, 1, 1, 1, 1, -1, -1, 1, 1, 1, 1, -1, 1, -1, 1, 1, 1, -1, -1, 1, 1, 1, 1, -1, -1, -1, -1, 1, -1, 1, -1, 1, 1, 1, 1, -1, 1, -1, 1, 1, 1, -1, 1, -1, 1, 1, 1, 1, -1, -1, 1, 1, 1, 1, 1, -1, 1, 1, 1, 1, 1, -1, 1, 1, 1, -1, -1, -1, 1, 1, 1, -1, -1, -1, 1, 1, 1, -1, 1, -1, 1, 1, 1, 1, -1, 1, 1, 1, 1, 1, -1, -1, 1, 1, -1, 1, -1, 1, -1, 1, -1, -1, -1, -1, 1, 1, 1, 1, -1, -1, 1, 1, 1, -1, -1, 1, 1, 1, 1, 1, 1, -1, 1, 1, -1, 1, 1, -1, 1, 1, 1, -1, -1, -1, -1, 1, -1, 1, -1, -1, 1, 1, 1, 1, -1, 1, 1, 1, -1, 1, -1, -1, 1, 1, 1, 1, -1, -1, 1, 1, -1, 1, -1, 1, 1, 1, 1, 1, 1, -1, 1, 1, 1, -1, -1, 1, 1, 1, -1, 1, 1, -1, 1, -1, 1, -1, 1, 1, 1, 1, -1, 1, 1, 1, 1, 1, -1, 1, -1, 1, 1, 1, -1, 1, 1, -1, 1, -1, -1, -1, -1, 1, 1, -1, 1, 1, 1, 1, 1, -1, -1, -1, -1, 1, 1, -1, 1, 1, 1, -1, 1, -1, 1, -1, 1, 1, 1, -1, -1, 1, -1, 1, 1, -1, -1, -1, -1, 1, 1, -1, -1, 1, 1, -1, 1, 1, -1, -1, -1, 1, 1, -1, 1, -1, 1, -1, -1, 1, -1, -1, 1, 1, -1, -1, 1, -1, -1, -1, 1, 1, -1, -1, -1, 1, -1, 1, 1, 1, -1, -1, -1, 1, 1, -1, 1, 1, 1, -1, 1, 1, -1, -1, 1, -1, -1, -1, -1, 1, -1, 1, 1, -1, -1, -1, 1, 1, -1, -1, 1, 1, 1, -1, 1, -1, -1, -1, 1, 1, 1, -1, 1, 1, -1, 1, 1, 1, -1, 1, -1, 1, 1, -1, 1, 1, -1, -1, 1, -1, -1, -1, 1, 1, -1, -1, 1, -1, -1, 1, 1, -1, -1, -1, 1, -1, 1, 1, 1, -1, 1, -1, -1, -1, -1, 1, 1, 1, -1, 1, 1, -1, 1, -1, -1, -1, -1, 1, 1, -1, 1, 1, 1, -1, 1, -1, -1, -1, -1, -1, 1, 1, -1, 1, 1, -1, 1, -1, -1, -1, -1, 1, -1, 1, -1, -1, 1, -1, 1, -1, -1, 1, -1, -1, 1, 1, -1, 1, -1, -1, 1, -1, -1, 1, -1, 1, 1, 1, -1, 1, -1, -1, 1, -1, -1, -1, 1, -1, 1, 1, 1, 1, 1, 1, -1, -1, -1, 1, -1, -1, 1, -1, 1, 1, 1, -1, 1, -1, -1, 1, 1, -1, 1, -1, -1, 1, -1, -1, 1, 1, 1, -1, 1, -1, 1, 1, 1, 1, -1, -1, 1, 1, 1, 1, -1, 1, 1, -1, -1, 1, -1, 1, 1, -1, -1, 1, -1, 1, 1, 1, 1, 1, -1, -1, 1, -1, 1, -1, 1, -1, 1, 1, 1, 1, -1, 1, 1, -1, -1, 1, 1, 1, 1, 1, 1, -1, -1, 1, -1, 1, 1, -1, 1, -1, 1, 1, 1, -1, -1, -1, 1, 1, -1, 1, 1, 1, 1, 1, -1, 1, 1, -1, 1, -1, -1, 1, 1, -1, 1, 1, -1, 1, -1, -1, 1, 1, -1, 1, -1, 1, 1, 1, 1, 1, 1, 1, -1, 1, -1, -1, -1, 1, -1, 1, 1, 1, 1, -1, 1, -1, -1, -1, 1, 1, 1, 1, 1, -1, -1, -1, 1, 1, -1, -1, -1, 1, 1, 1, 1, 1, -1, -1, -1, 1, -1, -1, 1, -1, 1, 1, 1, 1, 1, -1, 1, 1, -1, -1, 1, -1, 1, 1, -1, 1, -1, -1, 1, -1, -1, 1, 1, 1, 1, 1, 1, -1, 1, -1, 1, -1, 1, -1, 1, -1, 1, 1, -1, 1, -1, 1, 1, -1, -1, -1, 1, -1, 1, 1, 1, 1, 1, -1, 1, -1, -1, -1, 1, -1, 1, 1, -1, 1, 1, -1, 1, -1, -1, -1, -1, -1, 1, 1, 1, 1, 1, -1, 1, 1, 1, -1, -1, -1, 1, -1, -1, 1, 1, -1, -1, 1, 1, -1, -1, -1, -1, -1, -1, -1, 1, -1, 1, -1, 1, -1, -1, 1, 1, -1, 1, -1, 1, 1, -1, 1, 1, -1, -1, -1, 1, 1, -1, -1, 1, -1, -1, 1, 1, 1, -1, -1, -1, 1, -1, -1, 1, -1, -1, 1, 1, -1, -1, -1, -1, -1, -1, -1, 1, -1, -1, -1, 1, 1, -1, -1, -1, -1, -1, 1, 1, -1, -1, 1, 1, -1, 1, -1, -1, 1, -1, 1, 1, -1, 1, 1, 1, -1, 1, -1, 1, -1, -1, 1, -1, -1, -1, 1, -1, 1, 1, -1, -1, -1, -1, -1, 1, -1, -1, 1, -1, 1, -1, 1, 1, -1, -1, -1, 1, -1, -1, 1, -1, 1, 1, -1, 1, -1, -1, -1, 1, -1, 1, 1, -1, 1, -1, 1, -1, -1, -1, -1, 1, -1, -1, 1, -1, 1, 1, 1, 1, -1, -1, -1, 1, -1, -1, -1, -1, 1, -1, 1, 1, -1, -1, -1, -1, 1, -1, -1, -1, 1, 1, 1, 1, -1, -1, -1, 1, 1, 1, -1, -1, -1, 1, 1, 1, 1, -1, -1, -1, 1, -1, -1, -1, 1, 1, 1, 1, -1, 1, -1, 1, 1, 1, -1, -1, 1, 1, 1, 1, -1, -1, 1, -1, 1, -1, -1, 1, 1, -1, 1, -1, 1, -1, 1, 1, -1, -1, -1, 1, 1, 1, 1, -1, -1, -1, -1, 1, -1, -1, -1, 1, 1, 1, 1, -1, 1, -1, 1, 1, -1, -1, -1, 1, 1, 1, 1, 1, -1, -1, -1, -1, 1, -1, -1, 1, 1, 1, 1, -1, 1, -1, -1, 1, -1, -1, -1, -1, 1, 1, 1, 1, -1, -1, -1, -1, 1, -1, 1, -1, 1, -1, 1, 1, -1, -1, -1, -1, 1, -1, 1, -1, 1, 1, 1, 1, -1, -1, -1, 1, 1, -1, 1, -1, 1, 1, 1, 1, -1, -1, -1, -1, 1, -1, 1, -1, -1, 1, 1, 1, -1, 1, -1, -1, -1, -1, 1, -1, 1, -1, 1, 1, -1, -1, 1, -1, 1, -1, 1, -1, -1, -1, 1, -1, 1, 1, 1, -1, 1, -1, 1, -1, -1, -1, -1, 1, 1, 1, 1, -1, 1, -1, 1, -1, 1, -1, 1, -1, 1, 1, 1, 1, 1, -1, 1, -1, -1, -1, 1, -1, 1, 1, 1, -1, 1, -1, -1, 1, 1, -1, -1, 1, 1, 1, -1, 1, 1, 1, -1, -1, -1, 1, -1, -1, 1, 1, -1, 1, -1, -1, 1, -1, -1, 1, 1, -1, 1, 1, -1, 1, 1, 1, -1, -1, -1, 1, 1, 1, 1, 1, 1, 1, 1, 1, 1, -1, -1, -1, 1, 1, 1, 1, -1, 1, 1, -1, -1, -1, 1, -1, 1, 1, 1, -1, 1, -1, 1, 1, 1, -1, 1, 1, 1, -1, 1, 1, 1, -1, 1, 1, 1, -1, 1, 1, 1, 1, -1, -1, 1, -1, 1, 1, 1, -1, -1, 1, -1, 1, -1, 1, 1, -1, 1, 1, -1, -1, 1, -1, 1, 1, -1, 1, 1, -1, 1, 1, -1, 1, 1, 1, 1, 1, -1, 1, 1, -1, 1, 1, 1, -1, 1, 1, 1, 1, -1, 1, -1, -1, 1, 1, -1, -1, 1, 1, -1, 1, 1, -1, 1, -1, 1, 1, 1, -1, 1, 1, 1, 1, -1, 1, 1, -1, 1, 1, -1, 1, 1, 1, -1, 1, 1, -1, 1, -1, -1, 1, 1, -1, 1, -1, -1, 1, -1, 1, 1, -1, 1, 1, 1, -1, 1, 1, 1, -1, 1, -1, 1, -1, -1, 1, 1, -1, 1, 1, -1, 1, 1, -1, -1, -1, 1, 1, 1, -1, 1, -1, -1, 1, 1, -1, 1, -1, 1, 1, 1, 1, 1, 1, -1, 1, 1, -1, 1, 1, -1, 1, -1, 1, 1, -1, -1, 1, -1, 1, 1, -1, 1, 1, 1, -1, 1, -1, -1, 1, -1, -1, 1, -1, -1, 1, 1, 1, 1, -1, -1, 1, 1, -1, 1, -1, -1, 1, 1, -1, 1, 1, -1, -1, -1, 1, -1, -1, 1, 1, -1, 1, -1, -1, 1, 1, -1, 1, -1, -1, 1, -1, 1, -1, 1, -1, 1, 1, -1, 1, -1, -1, 1, 1, 1, 1, 1, -1, 1, 1, -1, 1, -1, 1, 1, 1, -1, 1, -1, 1, -1, 1, -1, 1, -1, -1, 1, 1, 1, 1, 1, -1, -1, 1, -1, -1, 1, -1, -1, 1, -1, 1, -1, -1, -1, 1, 1, -1, -1, -1, -1, 1, 1, 1, 1, -1, -1, 1, -1, -1, 1, -1, -1, 1, 1, 1, 1, -1, -1, 1, 1, 1, -1, -1, -1, 1, -1, 1, -1, -1, 1, 1, -1, 1, -1, -1, 1, 1, 1, 1, 1, -1, 1, 1, 1, -1, -1, -1, -1, 1, 1, 1, -1, 1, -1, 1, 1, 1, -1, -1, 1, 1, 1, 1, -1, 1, -1, -1, 1, 1, -1, 1, 1, 1, 1, 1, -1, -1, 1, -1, -1, 1, 1, -1, 1, 1, 1, 1, -1, -1, 1, -1, -1, 1, -1, -1, 1, -1, 1, 1, 1, -1, 1, -1, -1, 1, -1, -1, -1, 1, 1, 1, -1, 1, -1, -1, 1, 1, -1, 1, -1, -1, 1, 1, -1, 1, -1, -1, 1, 1, -1, 1, -1, 1, 1, 1, -1, 1, -1, -1, 1, 1, 1, 1, -1, -1, -1, 1, -1, 1, -1, -1, -1, 1, 1, 1, -1, -1, 1, -1, -1, -1, -1, 1, -1, -1, -1, 1, -1, -1, -1, 1, 1, -1, -1, 1, 1, -1, 1, -1, -1, 1, -1, -1, 1, -1, -1, -1, -1, -1, 1, 1, -1, 1, -1, -1, 1, 1, -1, -1, 1, -1, -1, 1, -1, -1, 1, -1, 1, -1, 1, -1, 1, -1, -1, -1, 1, -1, -1, -1, 1, 1, -1, 1, -1, -1, -1, 1, -1, 1, -1, -1, 1, -1, -1, -1, 1, -1, -1, -1, 1, 1, -1, -1, 1, -1, 1, -1, -1, 1, -1, 1, 1, -1, -1, -1, 1, -1, -1, -1, 1, -1, 1, 1, 1, 1, -1, 1, -1, 1, -1, 1, -1, 1, -1, 1, 1, 1, -1, -1, -1, 1, -1, -1, -1, 1, -1, 1, 1, 1, -1, 1, -1, 1, -1, -1, 1, 1, -1, 1, 1, 1, -1, -1, -1, 1, -1, -1, -1, 1, -1, 1, 1, -1, -1, 1, -1, 1, -1, -1, 1, 1, -1, 1, 1, 1, -1, -1, 1, 1, -1, -1, 1, 1, -1, 1, 1, -1, -1, 1, 1, 1, 1, -1, -1, 1, -1, -1, 1, 1, -1, -1, 1, -1, 1, -1, 1, 1, -1, 1, -1, 1, -1, 1, 1, 1, 1, -1, 1, 1, -1, 1, 1, 1, 1, 1, -1, 1, 1, -1, -1, 1, 1, 1, -1, -1, 1, 1, 1, 1, -1, -1, -1, 1, 1, -1, 1, 1, 1, 1, -1, 1, -1, -1, 1, 1, -1, 1, -1, 1, -1, 1, 1, 1, -1, -1, -1, 1, 1, 1, -1, 1, -1, 1, -1, 1, -1, 1, -1, 1, 1, -1, -1, -1, -1, 1, 1, 1, 1, -1, -1, 1, 1, 1, 1, -1, 1, -1, 1, 1, 1, -1, 1, 1, 1, -1, -1, -1, 1, 1, 1, 1, 1, -1, 1, 1, -1, -1, -1, 1, -1, 1, 1, -1, 1, 1, 1, 1, -1, -1, -1, -1, 1, 1, 1, -1, -1, 1, 1, 1, -1, 1, -1, 1, 1, 1, 1, 1, -1, 1, 1, 1, -1, -1, -1, -1, 1, 1, 1, 1, -1, 1, 1, 1, -1, 1, -1, -1, -1, 1, 1, 1, -1, 1, 1, 1, -1, -1, 1, -1, 1, 1, -1, 1, 1, 1, 1, 1, -1, 1, 1, -1, 1, -1, 1, -1, -1, 1, 1, 1, 1, -1, 1, -1, -1, 1, 1, 1, -1, 1, 1, 1, -1, -1, 1, 1, -1, 1, -1, 1, 1, 1, 1, 1, -1, -1, 1, -1, -1, 1, 1, -1, -1, -1, 1, 1, -1, 1, 1, 1, -1, 1, -1, -1, 1, -1, 1, 1, -1, 1, 1, -1, 1, 1, 1, -1, -1, 1, 1, 1, -1, 1, 1, -1, 1, 1, 1, -1, 1, 1, 1, 1, -1, -1, 1, -1, 1, -1, -1, -1, -1, 1, 1, 1, -1, 1, 1, -1, 1, -1, -1, -1, -1, 1, 1, 1, -1, -1, 1, -1, 1, 1, -1, -1, 1, -1, 1, 1, -1, -1, 1, -1, 1, -1, 1, -1, -1, -1, 1, 1, -1, -1, 1, -1, -1, -1, -1, -1, 1, 1, 1, 1, -1, -1, 1, -1, -1, 1, -1, -1, 1, -1, 1, -1, -1, -1, -1, 1, -1, 1, -1, -1, -1, 1, -1, 1, 1, -1, 1, -1, 1, 1, -1, 1, -1, -1, -1, 1, 1, -1, -1, 1, -1, -1, 1, -1, 1, -1, -1, 1, -1, 1, -1, 1, -1, -1, -1, -1, 1, -1, -1, 1, -1, 1, 1, -1, 1, -1, -1, -1, -1, -1, 1, 1, 1, -1, 1, -1, -1, -1, -1, 1, -1, -1, 1, 1, 1, -1, 1, -1, -1, -1, -1, 1, 1, -1, 1, 1, 1, -1, 1, -1, -1, -1, -1, 1, 1, -1, 1, -1, 1, -1, -1, 1, -1, -1, -1, 1, -1, -1, 1, 1, 1, -1, -1, -1, -1, -1, 1, -1, 1, -1, 1, 1, 1, 1, -1, -1, -1, -1, 1, 1, 1, -1, -1, 1, 1, -1, -1, -1, -1, -1, -1, -1, 1, 1, -1, 1, 1, -1, 1, -1, -1, -1, -1, 1, 1, 1, 1, 1, 1, 1, -1, -1, -1, -1, -1, 1, 1, -1, -1, 1, 1, -1, -1, -1, -1, -1, -1, 1, 1, 1, -1, -1, 1, -1, 1, -1, -1, -1, -1, 1, 1, 1, -1, -1, 1, 1, 1, -1, -1, -1, 1, 1, 1, 1, -1, 1, 1, -1, -1, -1, -1, -1, -1, 1, 1, 1, 1, 1, 1, -1, -1, -1, -1, 1, 1, -1, 1, 1, -1, -1, 1, -1, -1, -1, -1, 1, -1, 1, 1, 1, 1, 1, 1, 1, -1, -1, -1, -1, 1, 1, 1, 1, 1, 1, 1, -1, -1, -1, -1, -1, 1, 1, 1, 1, -1, 1, 1, -1, -1, -1, -1, 1, -1, 1, -1, 1, 1, 1, 1, -1, -1, -1, -1, -1, 1, 1, 1, 1, 1, -1, 1, -1, -1, -1, -1, -1, 1, 1, 1, -1, 1, -1, -1, 1, -1, -1, -1, -1, 1, 1, -1, 1, 1, -1, -1, 1, -1, 1, -1, -1, 1, 1, 1, -1, 1, -1, -1, 1, -1, -1, -1, -1, 1, -1, -1, 1, 1, -1, 1, -1, 1, -1, -1, 1, 1, 1, 1, 1, -1, -1, -1, -1, 1, -1, -1, 1, -1, -1, -1, 1, -1, -1, -1, -1, 1, 1, -1, 1, -1, -1, -1, -1, 1, 1, 1, -1, -1, 1, -1, -1, -1, -1, -1, 1, 1, -1, -1, -1, -1, -1, -1, 1, -1, -1, 1, 1, -1, -1, 1, -1, -1, -1, 1, -1, 1, -1, -1, 1, 1, -1, 1, 1, -1, -1, 1, -1, 1, -1, 1, -1, 1, 1, -1, -1, 1, 1, 1, -1, -1, -1, -1, -1, 1, -1, -1, 1, -1, 1, 1, -1, -1, -1, -1, -1, 1, 1, 1, 1, -1, 1, 1, -1, -1, 1, -1, -1, 1, 1, 1, -1, 1, 1, 1, -1, -1, -1, -1, -1, 1, 1, -1, 1, -1, 1, 1, -1, 1, 1, -1, 1, 1, 1, -1, -1, 1, 1, 1, -1, -1, 1, -1, 1, 1, 1, -1, -1, 1, 1, -1, -1, -1, 1, -1, -1, 1, 1, -1, -1, 1, 1, -1, -1, -1, 1, 1, -1, 1, 1, -1, -1, 1, 1, 1, -1, 1, 1, -1, 1, 1, 1, -1, -1, 1, 1, 1, -1, -1, 1, -1, 1, -1, 1, -1, -1, 1, 1, -1, -1, -1, 1, 1, -1, 1, 1, -1, -1, 1, 1, 1, -1, -1, 1, -1, 1, -1, 1, -1, 1, -1, 1, 1, -1, -1, 1, 1, -1, 1, 1, -1, -1, -1, 1, 1, -1, 1, -1, 1, -1, 1, -1, 1, -1, -1, 1, 1, -1, 1, -1, 1, -1, 1, 1, -1, 1, 1, 1, 1, -1, 1, -1, 1, -1, 1, 1, -1, 1, -1, 1, -1, 1, -1, 1, 1, -1, 1
BQP_DATA, 3447, 15955, -7650.000000, -9398.000000, -21784.000000, -23532.000000, 8192.002605, 9178, 1994
